Translating instance to solver...

GLPSOL--GLPK LP/MIP Solver 5.0
Parameter(s) specified in the command line:
 --tmlim 28800 --mipgap 0.0 --write /tmp/tmp91sc240r.glpk.raw --wglp /tmp/tmp2ahmi32w.glpk.glp
 --cpxlp /tmp/tmpmynlrn9a.pyomo.lp
Reading problem data from '/tmp/tmpmynlrn9a.pyomo.lp'...
/tmp/tmpmynlrn9a.pyomo.lp:1165977: warning: lower bound of variable 'x2' redefined
/tmp/tmpmynlrn9a.pyomo.lp:1165977: warning: upper bound of variable 'x2' redefined
194886 rows, 116962 columns, 464104 non-zeros
116962 integer variables, 116880 of which are binary
1282857 lines were read
Writing problem data to '/tmp/tmp2ahmi32w.glpk.glp'...
883286 lines were written
GLPK Integer Optimizer 5.0
194886 rows, 116962 columns, 464104 non-zeros
116962 integer variables, 116880 of which are binary
Preprocessing...
560 hidden packing inequaliti(es) were detected
25840 hidden covering inequaliti(es) were detected
395 constraint coefficient(s) were reduced
86941 rows, 33134 columns, 211901 non-zeros
33134 integer variables, 33053 of which are binary
Scaling...
 A: min|aij| =  1.000e+00  max|aij| =  8.100e+01  ratio =  8.100e+01
GM: min|aij| =  5.508e-01  max|aij| =  1.816e+00  ratio =  3.296e+00
EQ: min|aij| =  3.066e-01  max|aij| =  1.000e+00  ratio =  3.262e+00
2N: min|aij| =  2.500e-01  max|aij| =  1.266e+00  ratio =  5.062e+00
Constructing initial basis...
Size of triangular part is 86941
Solving LP relaxation...
GLPK Simplex Optimizer 5.0
86941 rows, 33134 columns, 211901 non-zeros
      0: obj =   0.000000000e+00 inf =   2.195e+02 (405)
Perturbing LP to avoid stalling [199]...
   2644: obj =   1.283835247e+01 inf =   8.494e-06 (0) 15
*  5323: obj =   1.239081043e+00 inf =   2.349e-04 (1291) 16
Removing LP perturbation [5835]...
*  5835: obj =   1.223564000e+00 inf =   3.109e-15 (0) 2
OPTIMAL LP SOLUTION FOUND
Integer optimization begins...
Long-step dual simplex will be used
+  5835: mip =     not found yet >=              -inf        (1; 0)
+  6033: mip =     not found yet >=   1.223564000e+00        (6; 0)
+  6287: mip =     not found yet >=   1.223564000e+00        (13; 0)
+  6649: mip =     not found yet >=   1.223564000e+00        (29; 0)
+  9409: mip =     not found yet >=   1.223564000e+00        (29; 12)
+ 12540: mip =     not found yet >=   1.223564000e+00        (18; 23)
+ 14238: mip =     not found yet >=   1.223564000e+00        (17; 28)
+ 14735: mip =     not found yet >=   1.223564000e+00        (18; 29)
+ 16886: mip =     not found yet >=   1.223564000e+00        (24; 31)
+ 19170: mip =     not found yet >=   1.223564000e+00        (20; 49)
+ 20416: mip =     not found yet >=   1.223564000e+00        (30; 53)
